c 
c MolecularSimulation 0.9.3
c Simulation written: Jan 13 2012 -- 15:17:57
c Test: Lipton
c Input: ./data/testCNF/SWEEP_R12_K3_N16_M192_S000.cnf
c 
s UNSATISFIABLE
v 0
c algorithmTime:  8
c solutionMemory: 0
c mixCount:       786
c extractCount:   576
c appendCount:    32
c splitCount:     16
c spliceCount:    0
c purifyCount:    193
c 
